(set-info :category "industrial")
(set-info :status sat)
(declare-fun x00 () (_ BitVec 8))
(declare-fun x01 () (_ BitVec 8))
(declare-fun x04 () (_ BitVec 8))
(declare-fun x05 () (_ BitVec 8))
(declare-fun x06 () (_ BitVec 8))
(declare-fun x11 () (_ BitVec 8))
(declare-fun x13 () (_ BitVec 8))
(declare-fun x14 () (_ BitVec 8))
(declare-fun x17 () (_ BitVec 8))
(declare-fun x18 () (_ BitVec 8))
(declare-fun x21 () (_ BitVec 8))
(declare-fun x22 () (_ BitVec 8))
(declare-fun x24 () (_ BitVec 8))
(declare-fun x26 () (_ BitVec 8))
(declare-fun x27 () (_ BitVec 8))
(declare-fun x28 () (_ BitVec 8))
(declare-fun x30 () (_ BitVec 8))
(declare-fun x32 () (_ BitVec 8))
(declare-fun x34 () (_ BitVec 8))
(declare-fun x35 () (_ BitVec 8))
(declare-fun x36 () (_ BitVec 8))
(declare-fun x38 () (_ BitVec 8))
(declare-fun x41 () (_ BitVec 8))
(declare-fun x42 () (_ BitVec 8))
(declare-fun x43 () (_ BitVec 8))
(declare-fun x44 () (_ BitVec 8))
(declare-fun x45 () (_ BitVec 8))
(declare-fun x46 () (_ BitVec 8))
(declare-fun x51 () (_ BitVec 8))
(declare-fun x52 () (_ BitVec 8))
(declare-fun x55 () (_ BitVec 8))
(declare-fun x57 () (_ BitVec 8))
(declare-fun x58 () (_ BitVec 8))
(declare-fun x61 () (_ BitVec 8))
(declare-fun x63 () (_ BitVec 8))
(declare-fun x64 () (_ BitVec 8))
(declare-fun x65 () (_ BitVec 8))
(declare-fun x66 () (_ BitVec 8))
(declare-fun x70 () (_ BitVec 8))
(declare-fun x71 () (_ BitVec 8))
(declare-fun x73 () (_ BitVec 8))
(declare-fun x75 () (_ BitVec 8))
(declare-fun x77 () (_ BitVec 8))
(declare-fun x78 () (_ BitVec 8))
(declare-fun x81 () (_ BitVec 8))
(declare-fun x82 () (_ BitVec 8))
(declare-fun x85 () (_ BitVec 8))
(declare-fun x87 () (_ BitVec 8))
(assert (bvult x00 (_ bv9 8)))
(assert (bvult x01 (_ bv9 8)))
(assert (bvult x04 (_ bv9 8)))
(assert (bvult x05 (_ bv9 8)))
(assert (bvult x06 (_ bv9 8)))
(assert (bvult x11 (_ bv9 8)))
(assert (bvult x13 (_ bv9 8)))
(assert (bvult x14 (_ bv9 8)))
(assert (bvult x17 (_ bv9 8)))
(assert (bvult x18 (_ bv9 8)))
(assert (bvult x21 (_ bv9 8)))
(assert (bvult x22 (_ bv9 8)))
(assert (bvult x24 (_ bv9 8)))
(assert (bvult x26 (_ bv9 8)))
(assert (bvult x27 (_ bv9 8)))
(assert (bvult x28 (_ bv9 8)))
(assert (bvult x30 (_ bv9 8)))
(assert (bvult x32 (_ bv9 8)))
(assert (bvult x34 (_ bv9 8)))
(assert (bvult x35 (_ bv9 8)))
(assert (bvult x36 (_ bv9 8)))
(assert (bvult x38 (_ bv9 8)))
(assert (bvult x41 (_ bv9 8)))
(assert (bvult x42 (_ bv9 8)))
(assert (bvult x43 (_ bv9 8)))
(assert (bvult x44 (_ bv9 8)))
(assert (bvult x45 (_ bv9 8)))
(assert (bvult x46 (_ bv9 8)))
(assert (bvult x51 (_ bv9 8)))
(assert (bvult x52 (_ bv9 8)))
(assert (bvult x55 (_ bv9 8)))
(assert (bvult x57 (_ bv9 8)))
(assert (bvult x58 (_ bv9 8)))
(assert (bvult x61 (_ bv9 8)))
(assert (bvult x63 (_ bv9 8)))
(assert (bvult x64 (_ bv9 8)))
(assert (bvult x65 (_ bv9 8)))
(assert (bvult x66 (_ bv9 8)))
(assert (bvult x70 (_ bv9 8)))
(assert (bvult x71 (_ bv9 8)))
(assert (bvult x73 (_ bv9 8)))
(assert (bvult x75 (_ bv9 8)))
(assert (bvult x77 (_ bv9 8)))
(assert (bvult x78 (_ bv9 8)))
(assert (bvult x81 (_ bv9 8)))
(assert (bvult x82 (_ bv9 8)))
(assert (bvult x85 (_ bv9 8)))
(assert (bvult x87 (_ bv9 8)))
(assert (not (= x00 x01)))
(assert (not (= x00 (_ bv5 8))))
(assert (not (= x00 (_ bv1 8))))
(assert (not (= x00 x04)))
(assert (not (= x00 x05)))
(assert (not (= x00 x06)))
(assert (not (= x00 (_ bv3 8))))
(assert (not (= x00 (_ bv7 8))))
(assert (not (= x01 (_ bv5 8))))
(assert (not (= x01 (_ bv1 8))))
(assert (not (= x01 x04)))
(assert (not (= x01 x05)))
(assert (not (= x01 x06)))
(assert (not (= x01 (_ bv3 8))))
(assert (not (= x01 (_ bv7 8))))
(assert (not (= (_ bv5 8) (_ bv1 8))))
(assert (not (= (_ bv5 8) x04)))
(assert (not (= (_ bv5 8) x05)))
(assert (not (= (_ bv5 8) x06)))
(assert (not (= (_ bv5 8) (_ bv3 8))))
(assert (not (= (_ bv5 8) (_ bv7 8))))
(assert (not (= (_ bv1 8) x04)))
(assert (not (= (_ bv1 8) x05)))
(assert (not (= (_ bv1 8) x06)))
(assert (not (= (_ bv1 8) (_ bv3 8))))
(assert (not (= (_ bv1 8) (_ bv7 8))))
(assert (not (= x04 x05)))
(assert (not (= x04 x06)))
(assert (not (= x04 (_ bv3 8))))
(assert (not (= x04 (_ bv7 8))))
(assert (not (= x05 x06)))
(assert (not (= x05 (_ bv3 8))))
(assert (not (= x05 (_ bv7 8))))
(assert (not (= x06 (_ bv3 8))))
(assert (not (= x06 (_ bv7 8))))
(assert (not (= (_ bv3 8) (_ bv7 8))))
(assert (not (= (_ bv6 8) x11)))
(assert (not (= (_ bv6 8) (_ bv9 8))))
(assert (not (= (_ bv6 8) x13)))
(assert (not (= (_ bv6 8) x14)))
(assert (not (= (_ bv6 8) (_ bv4 8))))
(assert (not (= (_ bv6 8) (_ bv2 8))))
(assert (not (= (_ bv6 8) x17)))
(assert (not (= (_ bv6 8) x18)))
(assert (not (= x11 (_ bv9 8))))
(assert (not (= x11 x13)))
(assert (not (= x11 x14)))
(assert (not (= x11 (_ bv4 8))))
(assert (not (= x11 (_ bv2 8))))
(assert (not (= x11 x17)))
(assert (not (= x11 x18)))
(assert (not (= (_ bv9 8) x13)))
(assert (not (= (_ bv9 8) x14)))
(assert (not (= (_ bv9 8) (_ bv4 8))))
(assert (not (= (_ bv9 8) (_ bv2 8))))
(assert (not (= (_ bv9 8) x17)))
(assert (not (= (_ bv9 8) x18)))
(assert (not (= x13 x14)))
(assert (not (= x13 (_ bv4 8))))
(assert (not (= x13 (_ bv2 8))))
(assert (not (= x13 x17)))
(assert (not (= x13 x18)))
(assert (not (= x14 (_ bv4 8))))
(assert (not (= x14 (_ bv2 8))))
(assert (not (= x14 x17)))
(assert (not (= x14 x18)))
(assert (not (= (_ bv4 8) (_ bv2 8))))
(assert (not (= (_ bv4 8) x17)))
(assert (not (= (_ bv4 8) x18)))
(assert (not (= (_ bv2 8) x17)))
(assert (not (= (_ bv2 8) x18)))
(assert (not (= x17 x18)))
(assert (not (= (_ bv1 8) x21)))
(assert (not (= (_ bv1 8) x22)))
(assert (not (= (_ bv1 8) (_ bv8 8))))
(assert (not (= (_ bv1 8) x24)))
(assert (not (= (_ bv1 8) (_ bv5 8))))
(assert (not (= (_ bv1 8) x26)))
(assert (not (= (_ bv1 8) x27)))
(assert (not (= (_ bv1 8) x28)))
(assert (not (= x21 x22)))
(assert (not (= x21 (_ bv8 8))))
(assert (not (= x21 x24)))
(assert (not (= x21 (_ bv5 8))))
(assert (not (= x21 x26)))
(assert (not (= x21 x27)))
(assert (not (= x21 x28)))
(assert (not (= x22 (_ bv8 8))))
(assert (not (= x22 x24)))
(assert (not (= x22 (_ bv5 8))))
(assert (not (= x22 x26)))
(assert (not (= x22 x27)))
(assert (not (= x22 x28)))
(assert (not (= (_ bv8 8) x24)))
(assert (not (= (_ bv8 8) (_ bv5 8))))
(assert (not (= (_ bv8 8) x26)))
(assert (not (= (_ bv8 8) x27)))
(assert (not (= (_ bv8 8) x28)))
(assert (not (= x24 (_ bv5 8))))
(assert (not (= x24 x26)))
(assert (not (= x24 x27)))
(assert (not (= x24 x28)))
(assert (not (= (_ bv5 8) x26)))
(assert (not (= (_ bv5 8) x27)))
(assert (not (= (_ bv5 8) x28)))
(assert (not (= x26 x27)))
(assert (not (= x26 x28)))
(assert (not (= x27 x28)))
(assert (not (= x30 (_ bv1 8))))
(assert (not (= x30 x32)))
(assert (not (= x30 (_ bv2 8))))
(assert (not (= x30 x34)))
(assert (not (= x30 x35)))
(assert (not (= x30 x36)))
(assert (not (= x30 (_ bv7 8))))
(assert (not (= x30 x38)))
(assert (not (= (_ bv1 8) x32)))
(assert (not (= (_ bv1 8) (_ bv2 8))))
(assert (not (= (_ bv1 8) x34)))
(assert (not (= (_ bv1 8) x35)))
(assert (not (= (_ bv1 8) x36)))
(assert (not (= (_ bv1 8) (_ bv7 8))))
(assert (not (= (_ bv1 8) x38)))
(assert (not (= x32 (_ bv2 8))))
(assert (not (= x32 x34)))
(assert (not (= x32 x35)))
(assert (not (= x32 x36)))
(assert (not (= x32 (_ bv7 8))))
(assert (not (= x32 x38)))
(assert (not (= (_ bv2 8) x34)))
(assert (not (= (_ bv2 8) x35)))
(assert (not (= (_ bv2 8) x36)))
(assert (not (= (_ bv2 8) (_ bv7 8))))
(assert (not (= (_ bv2 8) x38)))
(assert (not (= x34 x35)))
(assert (not (= x34 x36)))
(assert (not (= x34 (_ bv7 8))))
(assert (not (= x34 x38)))
(assert (not (= x35 x36)))
(assert (not (= x35 (_ bv7 8))))
(assert (not (= x35 x38)))
(assert (not (= x36 (_ bv7 8))))
(assert (not (= x36 x38)))
(assert (not (= (_ bv7 8) x38)))
(assert (not (= (_ bv3 8) x41)))
(assert (not (= (_ bv3 8) x42)))
(assert (not (= (_ bv3 8) x43)))
(assert (not (= (_ bv3 8) x44)))
(assert (not (= (_ bv3 8) x45)))
(assert (not (= (_ bv3 8) x46)))
(assert (not (= (_ bv3 8) (_ bv8 8))))
(assert (not (= (_ bv3 8) (_ bv6 8))))
(assert (not (= x41 x42)))
(assert (not (= x41 x43)))
(assert (not (= x41 x44)))
(assert (not (= x41 x45)))
(assert (not (= x41 x46)))
(assert (not (= x41 (_ bv8 8))))
(assert (not (= x41 (_ bv6 8))))
(assert (not (= x42 x43)))
(assert (not (= x42 x44)))
(assert (not (= x42 x45)))
(assert (not (= x42 x46)))
(assert (not (= x42 (_ bv8 8))))
(assert (not (= x42 (_ bv6 8))))
(assert (not (= x43 x44)))
(assert (not (= x43 x45)))
(assert (not (= x43 x46)))
(assert (not (= x43 (_ bv8 8))))
(assert (not (= x43 (_ bv6 8))))
(assert (not (= x44 x45)))
(assert (not (= x44 x46)))
(assert (not (= x44 (_ bv8 8))))
(assert (not (= x44 (_ bv6 8))))
(assert (not (= x45 x46)))
(assert (not (= x45 (_ bv8 8))))
(assert (not (= x45 (_ bv6 8))))
(assert (not (= x46 (_ bv8 8))))
(assert (not (= x46 (_ bv6 8))))
(assert (not (= (_ bv8 8) (_ bv6 8))))
(assert (not (= (_ bv7 8) x51)))
(assert (not (= (_ bv7 8) x52)))
(assert (not (= (_ bv7 8) (_ bv5 8))))
(assert (not (= (_ bv7 8) (_ bv4 8))))
(assert (not (= (_ bv7 8) x55)))
(assert (not (= (_ bv7 8) (_ bv1 8))))
(assert (not (= (_ bv7 8) x57)))
(assert (not (= (_ bv7 8) x58)))
(assert (not (= x51 x52)))
(assert (not (= x51 (_ bv5 8))))
(assert (not (= x51 (_ bv4 8))))
(assert (not (= x51 x55)))
(assert (not (= x51 (_ bv1 8))))
(assert (not (= x51 x57)))
(assert (not (= x51 x58)))
(assert (not (= x52 (_ bv5 8))))
(assert (not (= x52 (_ bv4 8))))
(assert (not (= x52 x55)))
(assert (not (= x52 (_ bv1 8))))
(assert (not (= x52 x57)))
(assert (not (= x52 x58)))
(assert (not (= (_ bv5 8) (_ bv4 8))))
(assert (not (= (_ bv5 8) x55)))
(assert (not (= (_ bv5 8) (_ bv1 8))))
(assert (not (= (_ bv5 8) x57)))
(assert (not (= (_ bv5 8) x58)))
(assert (not (= (_ bv4 8) x55)))
(assert (not (= (_ bv4 8) (_ bv1 8))))
(assert (not (= (_ bv4 8) x57)))
(assert (not (= (_ bv4 8) x58)))
(assert (not (= x55 (_ bv1 8))))
(assert (not (= x55 x57)))
(assert (not (= x55 x58)))
(assert (not (= (_ bv1 8) x57)))
(assert (not (= (_ bv1 8) x58)))
(assert (not (= x57 x58)))
(assert (not (= (_ bv8 8) x61)))
(assert (not (= (_ bv8 8) (_ bv3 8))))
(assert (not (= (_ bv8 8) x63)))
(assert (not (= (_ bv8 8) x64)))
(assert (not (= (_ bv8 8) x65)))
(assert (not (= (_ bv8 8) x66)))
(assert (not (= (_ bv8 8) (_ bv2 8))))
(assert (not (= (_ bv8 8) (_ bv4 8))))
(assert (not (= x61 (_ bv3 8))))
(assert (not (= x61 x63)))
(assert (not (= x61 x64)))
(assert (not (= x61 x65)))
(assert (not (= x61 x66)))
(assert (not (= x61 (_ bv2 8))))
(assert (not (= x61 (_ bv4 8))))
(assert (not (= (_ bv3 8) x63)))
(assert (not (= (_ bv3 8) x64)))
(assert (not (= (_ bv3 8) x65)))
(assert (not (= (_ bv3 8) x66)))
(assert (not (= (_ bv3 8) (_ bv2 8))))
(assert (not (= (_ bv3 8) (_ bv4 8))))
(assert (not (= x63 x64)))
(assert (not (= x63 x65)))
(assert (not (= x63 x66)))
(assert (not (= x63 (_ bv2 8))))
(assert (not (= x63 (_ bv4 8))))
(assert (not (= x64 x65)))
(assert (not (= x64 x66)))
(assert (not (= x64 (_ bv2 8))))
(assert (not (= x64 (_ bv4 8))))
(assert (not (= x65 x66)))
(assert (not (= x65 (_ bv2 8))))
(assert (not (= x65 (_ bv4 8))))
(assert (not (= x66 (_ bv2 8))))
(assert (not (= x66 (_ bv4 8))))
(assert (not (= (_ bv2 8) (_ bv4 8))))
(assert (not (= x70 x71)))
(assert (not (= x70 (_ bv6 8))))
(assert (not (= x70 x73)))
(assert (not (= x70 (_ bv9 8))))
(assert (not (= x70 x75)))
(assert (not (= x70 (_ bv5 8))))
(assert (not (= x70 x77)))
(assert (not (= x70 x78)))
(assert (not (= x71 (_ bv6 8))))
(assert (not (= x71 x73)))
(assert (not (= x71 (_ bv9 8))))
(assert (not (= x71 x75)))
(assert (not (= x71 (_ bv5 8))))
(assert (not (= x71 x77)))
(assert (not (= x71 x78)))
(assert (not (= (_ bv6 8) x73)))
(assert (not (= (_ bv6 8) (_ bv9 8))))
(assert (not (= (_ bv6 8) x75)))
(assert (not (= (_ bv6 8) (_ bv5 8))))
(assert (not (= (_ bv6 8) x77)))
(assert (not (= (_ bv6 8) x78)))
(assert (not (= x73 (_ bv9 8))))
(assert (not (= x73 x75)))
(assert (not (= x73 (_ bv5 8))))
(assert (not (= x73 x77)))
(assert (not (= x73 x78)))
(assert (not (= (_ bv9 8) x75)))
(assert (not (= (_ bv9 8) (_ bv5 8))))
(assert (not (= (_ bv9 8) x77)))
(assert (not (= (_ bv9 8) x78)))
(assert (not (= x75 (_ bv5 8))))
(assert (not (= x75 x77)))
(assert (not (= x75 x78)))
(assert (not (= (_ bv5 8) x77)))
(assert (not (= (_ bv5 8) x78)))
(assert (not (= x77 x78)))
(assert (not (= (_ bv5 8) x81)))
(assert (not (= (_ bv5 8) x82)))
(assert (not (= (_ bv5 8) (_ bv7 8))))
(assert (not (= (_ bv5 8) (_ bv3 8))))
(assert (not (= (_ bv5 8) x85)))
(assert (not (= (_ bv5 8) (_ bv9 8))))
(assert (not (= (_ bv5 8) x87)))
(assert (not (= (_ bv5 8) (_ bv8 8))))
(assert (not (= x81 x82)))
(assert (not (= x81 (_ bv7 8))))
(assert (not (= x81 (_ bv3 8))))
(assert (not (= x81 x85)))
(assert (not (= x81 (_ bv9 8))))
(assert (not (= x81 x87)))
(assert (not (= x81 (_ bv8 8))))
(assert (not (= x82 (_ bv7 8))))
(assert (not (= x82 (_ bv3 8))))
(assert (not (= x82 x85)))
(assert (not (= x82 (_ bv9 8))))
(assert (not (= x82 x87)))
(assert (not (= x82 (_ bv8 8))))
(assert (not (= (_ bv7 8) (_ bv3 8))))
(assert (not (= (_ bv7 8) x85)))
(assert (not (= (_ bv7 8) (_ bv9 8))))
(assert (not (= (_ bv7 8) x87)))
(assert (not (= (_ bv7 8) (_ bv8 8))))
(assert (not (= (_ bv3 8) x85)))
(assert (not (= (_ bv3 8) (_ bv9 8))))
(assert (not (= (_ bv3 8) x87)))
(assert (not (= (_ bv3 8) (_ bv8 8))))
(assert (not (= x85 (_ bv9 8))))
(assert (not (= x85 x87)))
(assert (not (= x85 (_ bv8 8))))
(assert (not (= (_ bv9 8) x87)))
(assert (not (= (_ bv9 8) (_ bv8 8))))
(assert (not (= x87 (_ bv8 8))))
(assert (not (= x00 (_ bv6 8))))
(assert (not (= x00 (_ bv1 8))))
(assert (not (= x00 x30)))
(assert (not (= x00 (_ bv3 8))))
(assert (not (= x00 (_ bv7 8))))
(assert (not (= x00 (_ bv8 8))))
(assert (not (= x00 x70)))
(assert (not (= x00 (_ bv5 8))))
(assert (not (= (_ bv6 8) (_ bv1 8))))
(assert (not (= (_ bv6 8) x30)))
(assert (not (= (_ bv6 8) (_ bv3 8))))
(assert (not (= (_ bv6 8) (_ bv7 8))))
(assert (not (= (_ bv6 8) (_ bv8 8))))
(assert (not (= (_ bv6 8) x70)))
(assert (not (= (_ bv6 8) (_ bv5 8))))
(assert (not (= (_ bv1 8) x30)))
(assert (not (= (_ bv1 8) (_ bv3 8))))
(assert (not (= (_ bv1 8) (_ bv7 8))))
(assert (not (= (_ bv1 8) (_ bv8 8))))
(assert (not (= (_ bv1 8) x70)))
(assert (not (= (_ bv1 8) (_ bv5 8))))
(assert (not (= x30 (_ bv3 8))))
(assert (not (= x30 (_ bv7 8))))
(assert (not (= x30 (_ bv8 8))))
(assert (not (= x30 x70)))
(assert (not (= x30 (_ bv5 8))))
(assert (not (= (_ bv3 8) (_ bv7 8))))
(assert (not (= (_ bv3 8) (_ bv8 8))))
(assert (not (= (_ bv3 8) x70)))
(assert (not (= (_ bv3 8) (_ bv5 8))))
(assert (not (= (_ bv7 8) (_ bv8 8))))
(assert (not (= (_ bv7 8) x70)))
(assert (not (= (_ bv7 8) (_ bv5 8))))
(assert (not (= (_ bv8 8) x70)))
(assert (not (= (_ bv8 8) (_ bv5 8))))
(assert (not (= x70 (_ bv5 8))))
(assert (not (= x01 x11)))
(assert (not (= x01 x21)))
(assert (not (= x01 (_ bv1 8))))
(assert (not (= x01 x41)))
(assert (not (= x01 x51)))
(assert (not (= x01 x61)))
(assert (not (= x01 x71)))
(assert (not (= x01 x81)))
(assert (not (= x11 x21)))
(assert (not (= x11 (_ bv1 8))))
(assert (not (= x11 x41)))
(assert (not (= x11 x51)))
(assert (not (= x11 x61)))
(assert (not (= x11 x71)))
(assert (not (= x11 x81)))
(assert (not (= x21 (_ bv1 8))))
(assert (not (= x21 x41)))
(assert (not (= x21 x51)))
(assert (not (= x21 x61)))
(assert (not (= x21 x71)))
(assert (not (= x21 x81)))
(assert (not (= (_ bv1 8) x41)))
(assert (not (= (_ bv1 8) x51)))
(assert (not (= (_ bv1 8) x61)))
(assert (not (= (_ bv1 8) x71)))
(assert (not (= (_ bv1 8) x81)))
(assert (not (= x41 x51)))
(assert (not (= x41 x61)))
(assert (not (= x41 x71)))
(assert (not (= x41 x81)))
(assert (not (= x51 x61)))
(assert (not (= x51 x71)))
(assert (not (= x51 x81)))
(assert (not (= x61 x71)))
(assert (not (= x61 x81)))
(assert (not (= x71 x81)))
(assert (not (= (_ bv5 8) (_ bv9 8))))
(assert (not (= (_ bv5 8) x22)))
(assert (not (= (_ bv5 8) x32)))
(assert (not (= (_ bv5 8) x42)))
(assert (not (= (_ bv5 8) x52)))
(assert (not (= (_ bv5 8) (_ bv3 8))))
(assert (not (= (_ bv5 8) (_ bv6 8))))
(assert (not (= (_ bv5 8) x82)))
(assert (not (= (_ bv9 8) x22)))
(assert (not (= (_ bv9 8) x32)))
(assert (not (= (_ bv9 8) x42)))
(assert (not (= (_ bv9 8) x52)))
(assert (not (= (_ bv9 8) (_ bv3 8))))
(assert (not (= (_ bv9 8) (_ bv6 8))))
(assert (not (= (_ bv9 8) x82)))
(assert (not (= x22 x32)))
(assert (not (= x22 x42)))
(assert (not (= x22 x52)))
(assert (not (= x22 (_ bv3 8))))
(assert (not (= x22 (_ bv6 8))))
(assert (not (= x22 x82)))
(assert (not (= x32 x42)))
(assert (not (= x32 x52)))
(assert (not (= x32 (_ bv3 8))))
(assert (not (= x32 (_ bv6 8))))
(assert (not (= x32 x82)))
(assert (not (= x42 x52)))
(assert (not (= x42 (_ bv3 8))))
(assert (not (= x42 (_ bv6 8))))
(assert (not (= x42 x82)))
(assert (not (= x52 (_ bv3 8))))
(assert (not (= x52 (_ bv6 8))))
(assert (not (= x52 x82)))
(assert (not (= (_ bv3 8) (_ bv6 8))))
(assert (not (= (_ bv3 8) x82)))
(assert (not (= (_ bv6 8) x82)))
(assert (not (= (_ bv1 8) x13)))
(assert (not (= (_ bv1 8) (_ bv8 8))))
(assert (not (= (_ bv1 8) (_ bv2 8))))
(assert (not (= (_ bv1 8) x43)))
(assert (not (= (_ bv1 8) (_ bv5 8))))
(assert (not (= (_ bv1 8) x63)))
(assert (not (= (_ bv1 8) x73)))
(assert (not (= (_ bv1 8) (_ bv7 8))))
(assert (not (= x13 (_ bv8 8))))
(assert (not (= x13 (_ bv2 8))))
(assert (not (= x13 x43)))
(assert (not (= x13 (_ bv5 8))))
(assert (not (= x13 x63)))
(assert (not (= x13 x73)))
(assert (not (= x13 (_ bv7 8))))
(assert (not (= (_ bv8 8) (_ bv2 8))))
(assert (not (= (_ bv8 8) x43)))
(assert (not (= (_ bv8 8) (_ bv5 8))))
(assert (not (= (_ bv8 8) x63)))
(assert (not (= (_ bv8 8) x73)))
(assert (not (= (_ bv8 8) (_ bv7 8))))
(assert (not (= (_ bv2 8) x43)))
(assert (not (= (_ bv2 8) (_ bv5 8))))
(assert (not (= (_ bv2 8) x63)))
(assert (not (= (_ bv2 8) x73)))
(assert (not (= (_ bv2 8) (_ bv7 8))))
(assert (not (= x43 (_ bv5 8))))
(assert (not (= x43 x63)))
(assert (not (= x43 x73)))
(assert (not (= x43 (_ bv7 8))))
(assert (not (= (_ bv5 8) x63)))
(assert (not (= (_ bv5 8) x73)))
(assert (not (= (_ bv5 8) (_ bv7 8))))
(assert (not (= x63 x73)))
(assert (not (= x63 (_ bv7 8))))
(assert (not (= x73 (_ bv7 8))))
(assert (not (= x04 x14)))
(assert (not (= x04 x24)))
(assert (not (= x04 x34)))
(assert (not (= x04 x44)))
(assert (not (= x04 (_ bv4 8))))
(assert (not (= x04 x64)))
(assert (not (= x04 (_ bv9 8))))
(assert (not (= x04 (_ bv3 8))))
(assert (not (= x14 x24)))
(assert (not (= x14 x34)))
(assert (not (= x14 x44)))
(assert (not (= x14 (_ bv4 8))))
(assert (not (= x14 x64)))
(assert (not (= x14 (_ bv9 8))))
(assert (not (= x14 (_ bv3 8))))
(assert (not (= x24 x34)))
(assert (not (= x24 x44)))
(assert (not (= x24 (_ bv4 8))))
(assert (not (= x24 x64)))
(assert (not (= x24 (_ bv9 8))))
(assert (not (= x24 (_ bv3 8))))
(assert (not (= x34 x44)))
(assert (not (= x34 (_ bv4 8))))
(assert (not (= x34 x64)))
(assert (not (= x34 (_ bv9 8))))
(assert (not (= x34 (_ bv3 8))))
(assert (not (= x44 (_ bv4 8))))
(assert (not (= x44 x64)))
(assert (not (= x44 (_ bv9 8))))
(assert (not (= x44 (_ bv3 8))))
(assert (not (= (_ bv4 8) x64)))
(assert (not (= (_ bv4 8) (_ bv9 8))))
(assert (not (= (_ bv4 8) (_ bv3 8))))
(assert (not (= x64 (_ bv9 8))))
(assert (not (= x64 (_ bv3 8))))
(assert (not (= (_ bv9 8) (_ bv3 8))))
(assert (not (= x05 (_ bv4 8))))
(assert (not (= x05 (_ bv5 8))))
(assert (not (= x05 x35)))
(assert (not (= x05 x45)))
(assert (not (= x05 x55)))
(assert (not (= x05 x65)))
(assert (not (= x05 x75)))
(assert (not (= x05 x85)))
(assert (not (= (_ bv4 8) (_ bv5 8))))
(assert (not (= (_ bv4 8) x35)))
(assert (not (= (_ bv4 8) x45)))
(assert (not (= (_ bv4 8) x55)))
(assert (not (= (_ bv4 8) x65)))
(assert (not (= (_ bv4 8) x75)))
(assert (not (= (_ bv4 8) x85)))
(assert (not (= (_ bv5 8) x35)))
(assert (not (= (_ bv5 8) x45)))
(assert (not (= (_ bv5 8) x55)))
(assert (not (= (_ bv5 8) x65)))
(assert (not (= (_ bv5 8) x75)))
(assert (not (= (_ bv5 8) x85)))
(assert (not (= x35 x45)))
(assert (not (= x35 x55)))
(assert (not (= x35 x65)))
(assert (not (= x35 x75)))
(assert (not (= x35 x85)))
(assert (not (= x45 x55)))
(assert (not (= x45 x65)))
(assert (not (= x45 x75)))
(assert (not (= x45 x85)))
(assert (not (= x55 x65)))
(assert (not (= x55 x75)))
(assert (not (= x55 x85)))
(assert (not (= x65 x75)))
(assert (not (= x65 x85)))
(assert (not (= x75 x85)))
(assert (not (= x06 (_ bv2 8))))
(assert (not (= x06 x26)))
(assert (not (= x06 x36)))
(assert (not (= x06 x46)))
(assert (not (= x06 (_ bv1 8))))
(assert (not (= x06 x66)))
(assert (not (= x06 (_ bv5 8))))
(assert (not (= x06 (_ bv9 8))))
(assert (not (= (_ bv2 8) x26)))
(assert (not (= (_ bv2 8) x36)))
(assert (not (= (_ bv2 8) x46)))
(assert (not (= (_ bv2 8) (_ bv1 8))))
(assert (not (= (_ bv2 8) x66)))
(assert (not (= (_ bv2 8) (_ bv5 8))))
(assert (not (= (_ bv2 8) (_ bv9 8))))
(assert (not (= x26 x36)))
(assert (not (= x26 x46)))
(assert (not (= x26 (_ bv1 8))))
(assert (not (= x26 x66)))
(assert (not (= x26 (_ bv5 8))))
(assert (not (= x26 (_ bv9 8))))
(assert (not (= x36 x46)))
(assert (not (= x36 (_ bv1 8))))
(assert (not (= x36 x66)))
(assert (not (= x36 (_ bv5 8))))
(assert (not (= x36 (_ bv9 8))))
(assert (not (= x46 (_ bv1 8))))
(assert (not (= x46 x66)))
(assert (not (= x46 (_ bv5 8))))
(assert (not (= x46 (_ bv9 8))))
(assert (not (= (_ bv1 8) x66)))
(assert (not (= (_ bv1 8) (_ bv5 8))))
(assert (not (= (_ bv1 8) (_ bv9 8))))
(assert (not (= x66 (_ bv5 8))))
(assert (not (= x66 (_ bv9 8))))
(assert (not (= (_ bv5 8) (_ bv9 8))))
(assert (not (= (_ bv3 8) x17)))
(assert (not (= (_ bv3 8) x27)))
(assert (not (= (_ bv3 8) (_ bv7 8))))
(assert (not (= (_ bv3 8) (_ bv8 8))))
(assert (not (= (_ bv3 8) x57)))
(assert (not (= (_ bv3 8) (_ bv2 8))))
(assert (not (= (_ bv3 8) x77)))
(assert (not (= (_ bv3 8) x87)))
(assert (not (= x17 x27)))
(assert (not (= x17 (_ bv7 8))))
(assert (not (= x17 (_ bv8 8))))
(assert (not (= x17 x57)))
(assert (not (= x17 (_ bv2 8))))
(assert (not (= x17 x77)))
(assert (not (= x17 x87)))
(assert (not (= x27 (_ bv7 8))))
(assert (not (= x27 (_ bv8 8))))
(assert (not (= x27 x57)))
(assert (not (= x27 (_ bv2 8))))
(assert (not (= x27 x77)))
(assert (not (= x27 x87)))
(assert (not (= (_ bv7 8) (_ bv8 8))))
(assert (not (= (_ bv7 8) x57)))
(assert (not (= (_ bv7 8) (_ bv2 8))))
(assert (not (= (_ bv7 8) x77)))
(assert (not (= (_ bv7 8) x87)))
(assert (not (= (_ bv8 8) x57)))
(assert (not (= (_ bv8 8) (_ bv2 8))))
(assert (not (= (_ bv8 8) x77)))
(assert (not (= (_ bv8 8) x87)))
(assert (not (= x57 (_ bv2 8))))
(assert (not (= x57 x77)))
(assert (not (= x57 x87)))
(assert (not (= (_ bv2 8) x77)))
(assert (not (= (_ bv2 8) x87)))
(assert (not (= x77 x87)))
(assert (not (= (_ bv7 8) x18)))
(assert (not (= (_ bv7 8) x28)))
(assert (not (= (_ bv7 8) x38)))
(assert (not (= (_ bv7 8) (_ bv6 8))))
(assert (not (= (_ bv7 8) x58)))
(assert (not (= (_ bv7 8) (_ bv4 8))))
(assert (not (= (_ bv7 8) x78)))
(assert (not (= (_ bv7 8) (_ bv8 8))))
(assert (not (= x18 x28)))
(assert (not (= x18 x38)))
(assert (not (= x18 (_ bv6 8))))
(assert (not (= x18 x58)))
(assert (not (= x18 (_ bv4 8))))
(assert (not (= x18 x78)))
(assert (not (= x18 (_ bv8 8))))
(assert (not (= x28 x38)))
(assert (not (= x28 (_ bv6 8))))
(assert (not (= x28 x58)))
(assert (not (= x28 (_ bv4 8))))
(assert (not (= x28 x78)))
(assert (not (= x28 (_ bv8 8))))
(assert (not (= x38 (_ bv6 8))))
(assert (not (= x38 x58)))
(assert (not (= x38 (_ bv4 8))))
(assert (not (= x38 x78)))
(assert (not (= x38 (_ bv8 8))))
(assert (not (= (_ bv6 8) x58)))
(assert (not (= (_ bv6 8) (_ bv4 8))))
(assert (not (= (_ bv6 8) x78)))
(assert (not (= (_ bv6 8) (_ bv8 8))))
(assert (not (= x58 (_ bv4 8))))
(assert (not (= x58 x78)))
(assert (not (= x58 (_ bv8 8))))
(assert (not (= (_ bv4 8) x78)))
(assert (not (= (_ bv4 8) (_ bv8 8))))
(assert (not (= x78 (_ bv8 8))))
(assert (not (= x00 x01)))
(assert (not (= x00 (_ bv5 8))))
(assert (not (= x00 (_ bv6 8))))
(assert (not (= x00 x11)))
(assert (not (= x00 (_ bv9 8))))
(assert (not (= x00 (_ bv1 8))))
(assert (not (= x00 x21)))
(assert (not (= x00 x22)))
(assert (not (= x01 (_ bv5 8))))
(assert (not (= x01 (_ bv6 8))))
(assert (not (= x01 x11)))
(assert (not (= x01 (_ bv9 8))))
(assert (not (= x01 (_ bv1 8))))
(assert (not (= x01 x21)))
(assert (not (= x01 x22)))
(assert (not (= (_ bv5 8) (_ bv6 8))))
(assert (not (= (_ bv5 8) x11)))
(assert (not (= (_ bv5 8) (_ bv9 8))))
(assert (not (= (_ bv5 8) (_ bv1 8))))
(assert (not (= (_ bv5 8) x21)))
(assert (not (= (_ bv5 8) x22)))
(assert (not (= (_ bv6 8) x11)))
(assert (not (= (_ bv6 8) (_ bv9 8))))
(assert (not (= (_ bv6 8) (_ bv1 8))))
(assert (not (= (_ bv6 8) x21)))
(assert (not (= (_ bv6 8) x22)))
(assert (not (= x11 (_ bv9 8))))
(assert (not (= x11 (_ bv1 8))))
(assert (not (= x11 x21)))
(assert (not (= x11 x22)))
(assert (not (= (_ bv9 8) (_ bv1 8))))
(assert (not (= (_ bv9 8) x21)))
(assert (not (= (_ bv9 8) x22)))
(assert (not (= (_ bv1 8) x21)))
(assert (not (= (_ bv1 8) x22)))
(assert (not (= x21 x22)))
(assert (not (= (_ bv1 8) x04)))
(assert (not (= (_ bv1 8) x05)))
(assert (not (= (_ bv1 8) x13)))
(assert (not (= (_ bv1 8) x14)))
(assert (not (= (_ bv1 8) (_ bv4 8))))
(assert (not (= (_ bv1 8) (_ bv8 8))))
(assert (not (= (_ bv1 8) x24)))
(assert (not (= (_ bv1 8) (_ bv5 8))))
(assert (not (= x04 x05)))
(assert (not (= x04 x13)))
(assert (not (= x04 x14)))
(assert (not (= x04 (_ bv4 8))))
(assert (not (= x04 (_ bv8 8))))
(assert (not (= x04 x24)))
(assert (not (= x04 (_ bv5 8))))
(assert (not (= x05 x13)))
(assert (not (= x05 x14)))
(assert (not (= x05 (_ bv4 8))))
(assert (not (= x05 (_ bv8 8))))
(assert (not (= x05 x24)))
(assert (not (= x05 (_ bv5 8))))
(assert (not (= x13 x14)))
(assert (not (= x13 (_ bv4 8))))
(assert (not (= x13 (_ bv8 8))))
(assert (not (= x13 x24)))
(assert (not (= x13 (_ bv5 8))))
(assert (not (= x14 (_ bv4 8))))
(assert (not (= x14 (_ bv8 8))))
(assert (not (= x14 x24)))
(assert (not (= x14 (_ bv5 8))))
(assert (not (= (_ bv4 8) (_ bv8 8))))
(assert (not (= (_ bv4 8) x24)))
(assert (not (= (_ bv4 8) (_ bv5 8))))
(assert (not (= (_ bv8 8) x24)))
(assert (not (= (_ bv8 8) (_ bv5 8))))
(assert (not (= x24 (_ bv5 8))))
(assert (not (= x06 (_ bv3 8))))
(assert (not (= x06 (_ bv7 8))))
(assert (not (= x06 (_ bv2 8))))
(assert (not (= x06 x17)))
(assert (not (= x06 x18)))
(assert (not (= x06 x26)))
(assert (not (= x06 x27)))
(assert (not (= x06 x28)))
(assert (not (= (_ bv3 8) (_ bv7 8))))
(assert (not (= (_ bv3 8) (_ bv2 8))))
(assert (not (= (_ bv3 8) x17)))
(assert (not (= (_ bv3 8) x18)))
(assert (not (= (_ bv3 8) x26)))
(assert (not (= (_ bv3 8) x27)))
(assert (not (= (_ bv3 8) x28)))
(assert (not (= (_ bv7 8) (_ bv2 8))))
(assert (not (= (_ bv7 8) x17)))
(assert (not (= (_ bv7 8) x18)))
(assert (not (= (_ bv7 8) x26)))
(assert (not (= (_ bv7 8) x27)))
(assert (not (= (_ bv7 8) x28)))
(assert (not (= (_ bv2 8) x17)))
(assert (not (= (_ bv2 8) x18)))
(assert (not (= (_ bv2 8) x26)))
(assert (not (= (_ bv2 8) x27)))
(assert (not (= (_ bv2 8) x28)))
(assert (not (= x17 x18)))
(assert (not (= x17 x26)))
(assert (not (= x17 x27)))
(assert (not (= x17 x28)))
(assert (not (= x18 x26)))
(assert (not (= x18 x27)))
(assert (not (= x18 x28)))
(assert (not (= x26 x27)))
(assert (not (= x26 x28)))
(assert (not (= x27 x28)))
(assert (not (= x30 (_ bv1 8))))
(assert (not (= x30 x32)))
(assert (not (= x30 (_ bv3 8))))
(assert (not (= x30 x41)))
(assert (not (= x30 x42)))
(assert (not (= x30 (_ bv7 8))))
(assert (not (= x30 x51)))
(assert (not (= x30 x52)))
(assert (not (= (_ bv1 8) x32)))
(assert (not (= (_ bv1 8) (_ bv3 8))))
(assert (not (= (_ bv1 8) x41)))
(assert (not (= (_ bv1 8) x42)))
(assert (not (= (_ bv1 8) (_ bv7 8))))
(assert (not (= (_ bv1 8) x51)))
(assert (not (= (_ bv1 8) x52)))
(assert (not (= x32 (_ bv3 8))))
(assert (not (= x32 x41)))
(assert (not (= x32 x42)))
(assert (not (= x32 (_ bv7 8))))
(assert (not (= x32 x51)))
(assert (not (= x32 x52)))
(assert (not (= (_ bv3 8) x41)))
(assert (not (= (_ bv3 8) x42)))
(assert (not (= (_ bv3 8) (_ bv7 8))))
(assert (not (= (_ bv3 8) x51)))
(assert (not (= (_ bv3 8) x52)))
(assert (not (= x41 x42)))
(assert (not (= x41 (_ bv7 8))))
(assert (not (= x41 x51)))
(assert (not (= x41 x52)))
(assert (not (= x42 (_ bv7 8))))
(assert (not (= x42 x51)))
(assert (not (= x42 x52)))
(assert (not (= (_ bv7 8) x51)))
(assert (not (= (_ bv7 8) x52)))
(assert (not (= x51 x52)))
(assert (not (= (_ bv2 8) x34)))
(assert (not (= (_ bv2 8) x35)))
(assert (not (= (_ bv2 8) x43)))
(assert (not (= (_ bv2 8) x44)))
(assert (not (= (_ bv2 8) x45)))
(assert (not (= (_ bv2 8) (_ bv5 8))))
(assert (not (= (_ bv2 8) (_ bv4 8))))
(assert (not (= (_ bv2 8) x55)))
(assert (not (= x34 x35)))
(assert (not (= x34 x43)))
(assert (not (= x34 x44)))
(assert (not (= x34 x45)))
(assert (not (= x34 (_ bv5 8))))
(assert (not (= x34 (_ bv4 8))))
(assert (not (= x34 x55)))
(assert (not (= x35 x43)))
(assert (not (= x35 x44)))
(assert (not (= x35 x45)))
(assert (not (= x35 (_ bv5 8))))
(assert (not (= x35 (_ bv4 8))))
(assert (not (= x35 x55)))
(assert (not (= x43 x44)))
(assert (not (= x43 x45)))
(assert (not (= x43 (_ bv5 8))))
(assert (not (= x43 (_ bv4 8))))
(assert (not (= x43 x55)))
(assert (not (= x44 x45)))
(assert (not (= x44 (_ bv5 8))))
(assert (not (= x44 (_ bv4 8))))
(assert (not (= x44 x55)))
(assert (not (= x45 (_ bv5 8))))
(assert (not (= x45 (_ bv4 8))))
(assert (not (= x45 x55)))
(assert (not (= (_ bv5 8) (_ bv4 8))))
(assert (not (= (_ bv5 8) x55)))
(assert (not (= (_ bv4 8) x55)))
(assert (not (= x36 (_ bv7 8))))
(assert (not (= x36 x38)))
(assert (not (= x36 x46)))
(assert (not (= x36 (_ bv8 8))))
(assert (not (= x36 (_ bv6 8))))
(assert (not (= x36 (_ bv1 8))))
(assert (not (= x36 x57)))
(assert (not (= x36 x58)))
(assert (not (= (_ bv7 8) x38)))
(assert (not (= (_ bv7 8) x46)))
(assert (not (= (_ bv7 8) (_ bv8 8))))
(assert (not (= (_ bv7 8) (_ bv6 8))))
(assert (not (= (_ bv7 8) (_ bv1 8))))
(assert (not (= (_ bv7 8) x57)))
(assert (not (= (_ bv7 8) x58)))
(assert (not (= x38 x46)))
(assert (not (= x38 (_ bv8 8))))
(assert (not (= x38 (_ bv6 8))))
(assert (not (= x38 (_ bv1 8))))
(assert (not (= x38 x57)))
(assert (not (= x38 x58)))
(assert (not (= x46 (_ bv8 8))))
(assert (not (= x46 (_ bv6 8))))
(assert (not (= x46 (_ bv1 8))))
(assert (not (= x46 x57)))
(assert (not (= x46 x58)))
(assert (not (= (_ bv8 8) (_ bv6 8))))
(assert (not (= (_ bv8 8) (_ bv1 8))))
(assert (not (= (_ bv8 8) x57)))
(assert (not (= (_ bv8 8) x58)))
(assert (not (= (_ bv6 8) (_ bv1 8))))
(assert (not (= (_ bv6 8) x57)))
(assert (not (= (_ bv6 8) x58)))
(assert (not (= (_ bv1 8) x57)))
(assert (not (= (_ bv1 8) x58)))
(assert (not (= x57 x58)))
(assert (not (= (_ bv8 8) x61)))
(assert (not (= (_ bv8 8) (_ bv3 8))))
(assert (not (= (_ bv8 8) x70)))
(assert (not (= (_ bv8 8) x71)))
(assert (not (= (_ bv8 8) (_ bv6 8))))
(assert (not (= (_ bv8 8) (_ bv5 8))))
(assert (not (= (_ bv8 8) x81)))
(assert (not (= (_ bv8 8) x82)))
(assert (not (= x61 (_ bv3 8))))
(assert (not (= x61 x70)))
(assert (not (= x61 x71)))
(assert (not (= x61 (_ bv6 8))))
(assert (not (= x61 (_ bv5 8))))
(assert (not (= x61 x81)))
(assert (not (= x61 x82)))
(assert (not (= (_ bv3 8) x70)))
(assert (not (= (_ bv3 8) x71)))
(assert (not (= (_ bv3 8) (_ bv6 8))))
(assert (not (= (_ bv3 8) (_ bv5 8))))
(assert (not (= (_ bv3 8) x81)))
(assert (not (= (_ bv3 8) x82)))
(assert (not (= x70 x71)))
(assert (not (= x70 (_ bv6 8))))
(assert (not (= x70 (_ bv5 8))))
(assert (not (= x70 x81)))
(assert (not (= x70 x82)))
(assert (not (= x71 (_ bv6 8))))
(assert (not (= x71 (_ bv5 8))))
(assert (not (= x71 x81)))
(assert (not (= x71 x82)))
(assert (not (= (_ bv6 8) (_ bv5 8))))
(assert (not (= (_ bv6 8) x81)))
(assert (not (= (_ bv6 8) x82)))
(assert (not (= (_ bv5 8) x81)))
(assert (not (= (_ bv5 8) x82)))
(assert (not (= x81 x82)))
(assert (not (= x63 x64)))
(assert (not (= x63 x65)))
(assert (not (= x63 x73)))
(assert (not (= x63 (_ bv9 8))))
(assert (not (= x63 x75)))
(assert (not (= x63 (_ bv7 8))))
(assert (not (= x63 (_ bv3 8))))
(assert (not (= x63 x85)))
(assert (not (= x64 x65)))
(assert (not (= x64 x73)))
(assert (not (= x64 (_ bv9 8))))
(assert (not (= x64 x75)))
(assert (not (= x64 (_ bv7 8))))
(assert (not (= x64 (_ bv3 8))))
(assert (not (= x64 x85)))
(assert (not (= x65 x73)))
(assert (not (= x65 (_ bv9 8))))
(assert (not (= x65 x75)))
(assert (not (= x65 (_ bv7 8))))
(assert (not (= x65 (_ bv3 8))))
(assert (not (= x65 x85)))
(assert (not (= x73 (_ bv9 8))))
(assert (not (= x73 x75)))
(assert (not (= x73 (_ bv7 8))))
(assert (not (= x73 (_ bv3 8))))
(assert (not (= x73 x85)))
(assert (not (= (_ bv9 8) x75)))
(assert (not (= (_ bv9 8) (_ bv7 8))))
(assert (not (= (_ bv9 8) (_ bv3 8))))
(assert (not (= (_ bv9 8) x85)))
(assert (not (= x75 (_ bv7 8))))
(assert (not (= x75 (_ bv3 8))))
(assert (not (= x75 x85)))
(assert (not (= (_ bv7 8) (_ bv3 8))))
(assert (not (= (_ bv7 8) x85)))
(assert (not (= (_ bv3 8) x85)))
(assert (not (= x66 (_ bv2 8))))
(assert (not (= x66 (_ bv4 8))))
(assert (not (= x66 (_ bv5 8))))
(assert (not (= x66 x77)))
(assert (not (= x66 x78)))
(assert (not (= x66 (_ bv9 8))))
(assert (not (= x66 x87)))
(assert (not (= x66 (_ bv8 8))))
(assert (not (= (_ bv2 8) (_ bv4 8))))
(assert (not (= (_ bv2 8) (_ bv5 8))))
(assert (not (= (_ bv2 8) x77)))
(assert (not (= (_ bv2 8) x78)))
(assert (not (= (_ bv2 8) (_ bv9 8))))
(assert (not (= (_ bv2 8) x87)))
(assert (not (= (_ bv2 8) (_ bv8 8))))
(assert (not (= (_ bv4 8) (_ bv5 8))))
(assert (not (= (_ bv4 8) x77)))
(assert (not (= (_ bv4 8) x78)))
(assert (not (= (_ bv4 8) (_ bv9 8))))
(assert (not (= (_ bv4 8) x87)))
(assert (not (= (_ bv4 8) (_ bv8 8))))
(assert (not (= (_ bv5 8) x77)))
(assert (not (= (_ bv5 8) x78)))
(assert (not (= (_ bv5 8) (_ bv9 8))))
(assert (not (= (_ bv5 8) x87)))
(assert (not (= (_ bv5 8) (_ bv8 8))))
(assert (not (= x77 x78)))
(assert (not (= x77 (_ bv9 8))))
(assert (not (= x77 x87)))
(assert (not (= x77 (_ bv8 8))))
(assert (not (= x78 (_ bv9 8))))
(assert (not (= x78 x87)))
(assert (not (= x78 (_ bv8 8))))
(assert (not (= (_ bv9 8) x87)))
(assert (not (= (_ bv9 8) (_ bv8 8))))
(assert (not (= x87 (_ bv8 8))))
(check-sat)
(exit)
